0	499	394	0	200
1	329	220	0	200
2	489	151	0	200
3	293	12	0	200
4	449	3	0	200
5	340	359	0	200
6	284	79	0	200
7	254	105	0	200
8	6	140	0	200
9	100	138	0	200
10	428	57	0	200
11	124	263	0	200
12	410	136	0	200
13	262	155	0	200
14	431	130	0	200
15	141	248	0	200
16	398	83	0	200
17	175	383	0	200
18	452	455	0	200
19	64	358	0	200
20	81	465	0	200
21	80	302	0	200
22	329	242	0	200
23	389	196	0	200
24	12	214	0	200
